0 1 1 1 1 1 0 1 0 0 0 1 1 
0 22 57 67 66 75 41 66 63 54 65 61 64 
22 0 56 47 64 32 65 40 52 63 56 54 23 
57 56 0 30 76 36 34 73 55 49 30 72 24 
67 47 30 0 22 30 26 30 43 21 62 43 42 
66 64 76 22 0 49 40 44 75 63 58 30 66 
75 32 36 30 49 0 48 65 17 43 23 78 33 
41 65 34 26 40 48 0 51 61 54 38 64 45 
66 40 73 30 44 65 51 0 61 58 61 63 44 
63 52 55 43 75 17 61 61 0 70 73 73 28 
54 63 49 21 63 43 54 58 70 0 16 75 52 
65 56 30 62 58 23 38 61 73 16 0 32 63 
61 54 72 43 30 78 64 63 73 75 32 0 65 
64 23 24 42 66 33 45 44 28 52 63 65 0 
2 50
1B 2P 8P 4P 5P 12P 11B 10B 6P 9B 13P 3P 7B = 379